p edge 100 990
e 1 5
e 1 6
e 1 10
e 1 19
e 1 23
e 1 28
e 1 38
e 1 39
e 1 46
e 1 47
e 1 48
e 1 49
e 1 52
e 1 53
e 1 58
e 1 59
e 1 64
e 1 67
e 1 68
e 1 72
e 1 75
e 1 78
e 1 80
e 1 82
e 1 84
e 1 90
e 1 94
e 1 99
e 1 100
e 2 5
e 2 10
e 2 15
e 2 19
e 2 21
e 2 23
e 2 26
e 2 37
e 2 43
e 2 44
e 2 58
e 2 64
e 2 77
e 2 87
e 2 89
e 2 93
e 2 96
e 3 11
e 3 17
e 3 25
e 3 26
e 3 36
e 3 40
e 3 44
e 3 45
e 3 53
e 3 67
e 3 68
e 3 71
e 3 73
e 3 86
e 3 88
e 3 91
e 3 98
e 4 5
e 4 10
e 4 16
e 4 18
e 4 28
e 4 29
e 4 30
e 4 44
e 4 46
e 4 56
e 4 63
e 4 64
e 4 68
e 4 71
e 4 73
e 4 74
e 4 77
e 4 81
e 4 85
e 4 86
e 5 10
e 5 22
e 5 29
e 5 30
e 5 37
e 5 42
e 5 55
e 5 71
e 5 76
e 5 79
e 5 89
e 5 96
e 5 98
e 6 8
e 6 14
e 6 15
e 6 23
e 6 26
e 6 27
e 6 31
e 6 32
e 6 33
e 6 35
e 6 44
e 6 46
e 6 48
e 6 52
e 6 54
e 6 63
e 6 65
e 6 75
e 6 79
e 7 13
e 7 27
e 7 33
e 7 36
e 7 38
e 7 41
e 7 42
e 7 45
e 7 47
e 7 49
e 7 69
e 7 78
e 7 83
e 7 92
e 7 96
e 7 100
e 8 12
e 8 21
e 8 25
e 8 32
e 8 42
e 8 46
e 8 54
e 8 57
e 8 60
e 8 64
e 8 66
e 8 81
e 8 90
e 8 92
e 9 10
e 9 16
e 9 21
e 9 23
e 9 27
e 9 30
e 9 37
e 9 40
e 9 46
e 9 47
e 9 55
e 9 59
e 9 61
e 9 63
e 9 70
e 9 87
e 9 97
e 9 99
e 10 19
e 10 24
e 10 25
e 10 26
e 10 28
e 10 33
e 10 36
e 10 40
e 10 43
e 10 45
e 10 50
e 10 70
e 10 74
e 10 79
e 10 82
e 10 83
e 10 99
e 11 13
e 11 23
e 11 44
e 11 56
e 11 58
e 11 68
e 11 71
e 11 72
e 11 73
e 11 74
e 11 81
e 11 83
e 11 86
e 11 88
e 11 92
e 11 94
e 11 95
e 12 14
e 12 21
e 12 23
e 12 31
e 12 33
e 12 36
e 12 40
e 12 51
e 12 59
e 12 64
e 12 69
e 12 72
e 12 75
e 12 77
e 12 78
e 12 81
e 12 86
e 12 87
e 12 92
e 12 94
e 13 14
e 13 18
e 13 21
e 13 22
e 13 26
e 13 30
e 13 33
e 13 44
e 13 48
e 13 61
e 13 81
e 13 88
e 13 89
e 13 90
e 13 94
e 13 98
e 14 22
e 14 24
e 14 28
e 14 39
e 14 43
e 14 56
e 14 58
e 14 65
e 14 67
e 14 71
e 14 89
e 14 92
e 14 94
e 14 96
e 14 99
e 15 20
e 15 21
e 15 22
e 15 25
e 15 28
e 15 30
e 15 36
e 15 40
e 15 42
e 15 43
e 15 57
e 15 63
e 15 66
e 15 68
e 15 70
e 15 73
e 15 75
e 15 76
e 15 82
e 15 84
e 15 88
e 15 94
e 16 18
e 16 23
e 16 28
e 16 30
e 16 36
e 16 47
e 16 51
e 16 52
e 16 53
e 16 56
e 16 57
e 16 64
e 16 66
e 16 82
e 16 83
e 16 84
e 16 89
e 16 93
e 17 22
e 17 24
e 17 25
e 17 28
e 17 37
e 17 39
e 17 41
e 17 42
e 17 43
e 17 45
e 17 49
e 17 50
e 17 60
e 17 76
e 17 82
e 17 83
e 17 89
e 17 96
e 18 22
e 18 31
e 18 37
e 18 44
e 18 45
e 18 54
e 18 58
e 18 63
e 18 67
e 18 74
e 18 75
e 18 78
e 18 83
e 18 91
e 18 92
e 18 96
e 19 38
e 19 40
e 19 56
e 19 59
e 19 61
e 19 65
e 19 76
e 19 77
e 19 79
e 19 82
e 19 87
e 19 94
e 19 99
e 20 46
e 20 48
e 20 58
e 20 71
e 20 73
e 20 78
e 20 79
e 20 82
e 20 88
e 20 90
e 21 28
e 21 31
e 21 38
e 21 39
e 21 45
e 21 50
e 21 52
e 21 55
e 21 56
e 21 59
e 21 67
e 21 70
e 21 79
e 21 85
e 21 91
e 21 92
e 21 98
e 21 99
e 22 26
e 22 33
e 22 52
e 22 53
e 22 56
e 22 64
e 22 69
e 22 82
e 22 87
e 22 99
e 23 27
e 23 30
e 23 35
e 23 40
e 23 45
e 23 48
e 23 63
e 23 70
e 23 73
e 23 84
e 23 86
e 23 88
e 23 92
e 23 97
e 24 26
e 24 29
e 24 32
e 24 34
e 24 45
e 24 50
e 24 57
e 24 60
e 24 62
e 24 70
e 24 71
e 24 75
e 24 81
e 24 85
e 24 86
e 24 97
e 25 28
e 25 33
e 25 43
e 25 47
e 25 65
e 25 66
e 25 75
e 25 76
e 25 80
e 25 90
e 25 98
e 26 36
e 26 53
e 26 56
e 26 59
e 26 61
e 26 64
e 26 74
e 26 77
e 26 78
e 26 93
e 27 33
e 27 37
e 27 40
e 27 43
e 27 44
e 27 55
e 27 61
e 27 72
e 27 78
e 27 80
e 27 96
e 27 99
e 27 100
e 28 32
e 28 39
e 28 47
e 28 55
e 28 60
e 28 61
e 28 62
e 28 68
e 28 69
e 28 70
e 28 71
e 28 84
e 28 90
e 28 96
e 28 99
e 28 100
e 29 35
e 29 38
e 29 51
e 29 56
e 29 59
e 29 64
e 29 69
e 29 70
e 29 74
e 29 83
e 29 87
e 30 37
e 30 38
e 30 39
e 30 45
e 30 55
e 30 63
e 30 67
e 30 72
e 30 80
e 30 84
e 30 95
e 30 96
e 30 99
e 31 35
e 31 38
e 31 39
e 31 40
e 31 49
e 31 60
e 31 61
e 31 62
e 31 66
e 31 72
e 31 74
e 31 86
e 31 89
e 31 90
e 31 93
e 31 94
e 31 97
e 31 98
e 32 33
e 32 42
e 32 64
e 32 72
e 32 74
e 32 82
e 32 84
e 32 87
e 33 40
e 33 41
e 33 54
e 33 56
e 33 72
e 33 76
e 33 77
e 33 81
e 33 84
e 33 97
e 33 98
e 34 36
e 34 38
e 34 50
e 34 52
e 34 53
e 34 58
e 34 60
e 34 65
e 34 66
e 34 70
e 34 73
e 34 78
e 34 81
e 34 82
e 34 90
e 34 93
e 34 94
e 34 100
e 35 40
e 35 47
e 35 48
e 35 51
e 35 53
e 35 57
e 35 59
e 35 61
e 35 73
e 35 77
e 35 78
e 35 88
e 35 93
e 35 99
e 36 44
e 36 45
e 36 47
e 36 51
e 36 56
e 36 59
e 36 60
e 36 63
e 36 65
e 36 67
e 36 68
e 36 88
e 36 94
e 36 95
e 36 97
e 36 98
e 36 99
e 37 38
e 37 51
e 37 75
e 37 80
e 37 87
e 37 96
e 37 99
e 37 100
e 38 42
e 38 43
e 38 44
e 38 49
e 38 50
e 38 55
e 38 56
e 38 58
e 38 61
e 38 66
e 38 67
e 38 69
e 38 70
e 38 78
e 38 82
e 38 83
e 38 88
e 38 93
e 38 94
e 38 98
e 39 43
e 39 47
e 39 55
e 39 56
e 39 58
e 39 65
e 39 68
e 39 69
e 39 72
e 39 73
e 39 79
e 39 85
e 39 93
e 39 96
e 39 99
e 39 100
e 40 48
e 40 50
e 40 51
e 40 56
e 40 62
e 40 65
e 40 66
e 40 69
e 40 72
e 40 73
e 40 74
e 40 75
e 40 82
e 40 85
e 40 86
e 40 89
e 40 96
e 40 97
e 41 43
e 41 44
e 41 48
e 41 58
e 41 62
e 41 68
e 41 72
e 41 75
e 41 76
e 41 78
e 41 81
e 41 87
e 41 98
e 42 46
e 42 47
e 42 50
e 42 59
e 42 74
e 42 75
e 42 80
e 42 81
e 42 82
e 42 85
e 42 100
e 43 44
e 43 49
e 43 53
e 43 54
e 43 60
e 43 64
e 43 66
e 43 67
e 43 75
e 43 80
e 44 55
e 44 56
e 44 58
e 44 69
e 44 70
e 44 72
e 44 73
e 44 77
e 44 82
e 44 84
e 44 91
e 44 95
e 44 96
e 44 97
e 45 48
e 45 53
e 45 57
e 45 58
e 45 63
e 45 70
e 45 71
e 45 74
e 45 76
e 45 79
e 45 81
e 45 92
e 45 93
e 45 97
e 45 99
e 46 47
e 46 49
e 46 51
e 46 54
e 46 55
e 46 60
e 46 66
e 46 71
e 46 74
e 46 77
e 46 82
e 46 83
e 46 89
e 46 92
e 46 99
e 47 48
e 47 58
e 47 63
e 47 68
e 47 75
e 47 80
e 47 84
e 47 91
e 47 95
e 47 97
e 47 98
e 47 100
e 48 62
e 48 64
e 48 73
e 48 74
e 48 78
e 48 79
e 48 81
e 48 83
e 48 88
e 48 92
e 48 100
e 49 55
e 49 58
e 49 66
e 49 70
e 49 73
e 49 77
e 49 85
e 49 89
e 49 91
e 49 96
e 49 98
e 50 51
e 50 55
e 50 57
e 50 61
e 50 71
e 50 73
e 50 76
e 50 81
e 50 84
e 50 89
e 50 95
e 50 97
e 50 99
e 51 52
e 51 54
e 51 59
e 51 61
e 51 79
e 51 80
e 51 84
e 51 90
e 51 92
e 51 96
e 52 54
e 52 59
e 52 60
e 52 61
e 52 65
e 52 66
e 52 67
e 52 70
e 52 79
e 52 94
e 52 98
e 53 78
e 53 83
e 53 85
e 53 89
e 53 90
e 54 56
e 54 71
e 54 74
e 54 77
e 54 83
e 54 84
e 54 85
e 54 86
e 54 88
e 54 92
e 54 96
e 54 98
e 54 100
e 55 58
e 55 65
e 55 70
e 55 77
e 55 78
e 55 81
e 55 86
e 55 99
e 56 63
e 56 67
e 56 73
e 56 74
e 56 80
e 56 88
e 56 89
e 57 65
e 57 73
e 57 74
e 57 83
e 57 84
e 57 85
e 57 96
e 58 63
e 58 65
e 58 66
e 58 68
e 58 77
e 58 80
e 58 99
e 59 60
e 59 64
e 59 74
e 59 84
e 59 87
e 59 94
e 59 95
e 59 96
e 60 65
e 60 68
e 60 75
e 60 86
e 60 88
e 60 91
e 61 65
e 61 68
e 61 69
e 61 79
e 61 80
e 61 86
e 61 93
e 61 95
e 61 99
e 61 100
e 62 65
e 62 73
e 62 75
e 62 76
e 62 82
e 62 83
e 62 86
e 62 88
e 62 90
e 63 66
e 63 68
e 63 69
e 63 77
e 63 84
e 63 85
e 63 86
e 63 87
e 63 91
e 63 95
e 63 98
e 64 67
e 64 84
e 64 88
e 65 73
e 65 75
e 65 77
e 65 84
e 65 86
e 65 95
e 65 98
e 66 67
e 66 83
e 66 90
e 67 70
e 67 71
e 67 72
e 67 73
e 67 74
e 67 80
e 67 81
e 67 95
e 68 71
e 68 72
e 68 78
e 68 79
e 68 82
e 68 94
e 69 82
e 69 84
e 69 85
e 69 89
e 69 94
e 69 96
e 70 78
e 70 86
e 70 92
e 71 73
e 71 74
e 71 81
e 71 82
e 71 85
e 71 88
e 71 99
e 72 78
e 72 81
e 72 87
e 72 95
e 73 79
e 73 85
e 73 90
e 73 95
e 73 99
e 74 86
e 74 87
e 74 94
e 74 96
e 74 100
e 75 76
e 75 82
e 75 84
e 75 85
e 75 86
e 75 95
e 75 96
e 76 79
e 76 80
e 76 96
e 76 98
e 77 78
e 77 81
e 77 85
e 77 88
e 77 100
e 78 79
e 78 81
e 78 82
e 78 90
e 78 99
e 79 90
e 79 92
e 79 93
e 79 94
e 79 96
e 79 98
e 80 82
e 80 85
e 80 86
e 80 87
e 80 96
e 81 96
e 81 100
e 82 83
e 82 89
e 82 90
e 82 97
e 83 85
e 83 92
e 83 97
e 84 86
e 84 88
e 84 90
e 85 86
e 85 87
e 85 96
e 85 100
e 86 89
e 86 90
e 86 91
e 87 88
e 87 92
e 87 93
e 87 94
e 87 99
e 87 100
e 88 90
e 88 91
e 88 96
e 88 98
e 89 92
e 89 97
e 89 98
e 91 99
e 91 100
e 93 95
e 93 99
e 94 95
e 95 97
e 96 97
